sat
(= |goto_symex::&92;guard#1| true)
(= |goto_symex::&92;guard#2| false)
(= |memory_model::choice_rf_1_35_0_10_T_0| false)
(= |memory_model::choice_rf_1_35_2_17_T_1| false)
(= |memory_model::choice_rf_1_35_3_35_T_2| true)
(= |memory_model::choice_rf_2_16_0_10_T_3| false)
(= |memory_model::choice_rf_2_16_1_36_T_4| true)
(= |memory_model::choice_rf_2_16_3_35_T_5| false)
(= |memory_model::choice_rf_3_34_0_10_T_6| true)
(= |memory_model::choice_rf_3_34_1_36_T_7| false)
(= |memory_model::choice_rf_3_34_2_17_T_8| false)
(= |memory_model::choice_rf_0_41_0_8_T_9| false)
(= |memory_model::choice_rf_0_41_0_37_T_10| true)
(= |memory_model::choice_rf_0_46_0_8_T_11| false)
(= |memory_model::choice_rf_0_46_0_37_T_12| false)
(= |memory_model::choice_rf_0_46_0_42_T_13| true)
(= |memory_model::choice_rf_0_68_0_17_F_14| false)
(= |memory_model::choice_rf_0_68_1_20_F_15| false)
(= |memory_model::choice_rf_0_68_2_0_F_16| true)
(= |memory_model::choice_rf_1_19_0_17_F_17| false)
(= |memory_model::choice_rf_1_19_2_0_F_18| false)
(= |memory_model::choice_rf_0_50_0_11_F_19| false)
(= |memory_model::choice_rf_0_50_1_34_F_20| false)
(= |memory_model::choice_rf_0_50_2_15_F_21| false)
(= |memory_model::choice_rf_0_50_3_33_F_22| true)
(= |memory_model::choice_rf_1_33_0_11_F_23| false)
(= |memory_model::choice_rf_1_33_2_15_F_24| true)
(= |memory_model::choice_rf_1_33_3_33_F_25| false)
(= |memory_model::choice_rf_2_14_0_11_F_26| true)
(= |memory_model::choice_rf_2_14_1_34_F_27| false)
(= |memory_model::choice_rf_2_14_3_33_F_28| false)
(= |memory_model::choice_rf_3_32_0_11_F_29| false)
(= |memory_model::choice_rf_3_32_1_34_F_30| true)
(= |memory_model::choice_rf_3_32_2_15_F_31| false)
(= |memory_model::choice_rf_0_66_0_12_F_32| false)
(= |memory_model::choice_rf_0_66_3_13_F_33| true)
(= |memory_model::choice_rf_0_52_0_13_F_34| false)
(= |memory_model::choice_rf_0_52_0_51_F_35| true)
(= |memory_model::choice_rf_0_65_0_14_F_36| false)
(= |memory_model::choice_rf_0_70_0_14_F_37| false)
(= |memory_model::choice_rf_0_70_0_69_F_38| true)
(= |memory_model::choice_rf_0_71_0_14_F_39| false)
(= |memory_model::choice_rf_0_71_0_69_F_40| true)
(= |memory_model::choice_rf_0_67_0_18_F_41| false)
(= |memory_model::choice_rf_0_67_2_1_F_42| false)
(= |memory_model::choice_rf_0_67_3_0_F_43| true)
(= |memory_model::choice_rf_0_53_0_19_F_44| false)
(= |memory_model::choice_rf_0_53_1_32_F_45| true)
(= |memory_model::choice_rf_0_53_2_13_F_46| false)
(= |memory_model::choice_rf_0_53_3_14_F_47| false)
(= |memory_model::choice_rf_0_53_3_31_F_48| false)
(= |memory_model::choice_rf_1_21_0_19_F_49| false)
(= |memory_model::choice_rf_1_21_0_64_F_50| false)
(= |memory_model::choice_rf_1_21_2_13_F_51| false)
(= |memory_model::choice_rf_1_21_3_14_F_52| false)
(= |memory_model::choice_rf_1_21_3_31_F_53| true)
(= |memory_model::choice_rf_2_2_0_19_F_54| true)
(= |memory_model::choice_rf_2_2_0_64_F_55| false)
(= |memory_model::choice_rf_2_2_1_32_F_56| false)
(= |memory_model::choice_rf_2_2_3_14_F_57| false)
(= |memory_model::choice_rf_2_2_3_31_F_58| false)
(= |memory_model::choice_rf_3_7_0_19_F_59| false)
(= |memory_model::choice_rf_3_7_0_64_F_60| false)
(= |memory_model::choice_rf_3_7_1_32_F_61| false)
(= |memory_model::choice_rf_3_7_2_13_F_62| true)
(= |memory_model::choice_rf_3_20_0_19_F_63| false)
(= |memory_model::choice_rf_3_20_0_64_F_64| false)
(= |memory_model::choice_rf_3_20_1_32_F_65| false)
(= |memory_model::choice_rf_3_20_2_13_F_66| false)
(= |memory_model::choice_rf_3_20_3_14_F_67| true)
(= |memory_model::choice_rf_0_58_0_22_F_68| true)
(= |memory_model::choice_rf_1_5_0_22_F_69| true)
(= |memory_model::choice_rf_1_5_0_61_F_70| false)
(= |memory_model::choice_rf_1_3_0_23_F_71| true)
(= |memory_model::choice_rf_1_26_0_23_F_72| false)
(= |memory_model::choice_rf_1_26_1_10_F_73| true)
(= |memory_model::choice_rf_1_1_0_24_F_74| true)
(= |memory_model::choice_rf_1_1_2_9_F_75| false)
(= |memory_model::choice_rf_2_6_0_24_F_76| true)
(= |memory_model::choice_rf_1_0_0_25_F_77| true)
(= |memory_model::choice_rf_1_0_3_16_F_78| false)
(= |memory_model::choice_rf_1_0_3_27_F_79| false)
(= |memory_model::choice_rf_3_4_0_25_F_80| true)
(= |memory_model::choice_rf_3_24_0_25_F_81| false)
(= |memory_model::choice_rf_3_24_3_16_F_82| true)
(= |memory_model::choice_rf_0_57_0_26_F_83| false)
(= |memory_model::choice_rf_0_57_1_12_F_84| true)
(= |memory_model::choice_rf_1_4_0_26_F_85| false)
(= |memory_model::choice_rf_1_4_0_60_F_86| false)
(= |memory_model::choice_rf_1_2_0_27_F_87| false)
(= |memory_model::choice_rf_1_25_0_27_F_88| false)
(= |memory_model::choice_rf_1_25_1_11_F_89| true)
(= |memory_model::choice_rf_1_7_0_28_F_90| false)
(= |memory_model::choice_rf_1_7_2_11_F_91| false)
(= |memory_model::choice_rf_2_7_0_28_F_92| false)
(= |memory_model::choice_rf_2_7_1_14_F_93| true)
(= |memory_model::choice_rf_1_6_0_29_F_94| false)
(= |memory_model::choice_rf_1_6_3_9_F_95| false)
(= |memory_model::choice_rf_1_6_3_29_F_96| false)
(= |memory_model::choice_rf_3_5_0_29_F_97| false)
(= |memory_model::choice_rf_3_5_1_13_F_98| true)
(= |memory_model::choice_rf_3_25_0_29_F_99| false)
(= |memory_model::choice_rf_3_25_1_13_F_100| false)
(= |memory_model::choice_rf_3_25_3_9_F_101| true)
(= |memory_model::choice_rf_0_56_0_32_F_102| false)
(= |memory_model::choice_rf_0_56_1_17_F_103| false)
(= |memory_model::choice_rf_0_56_3_12_F_104| true)
(= |memory_model::choice_rf_1_9_0_32_F_105| true)
(= |memory_model::choice_rf_1_9_3_12_F_106| false)
(= |memory_model::choice_rf_1_24_0_32_F_107| false)
(= |memory_model::choice_rf_1_24_1_17_F_108| false)
(= |memory_model::choice_rf_1_24_3_12_F_109| true)
(= |memory_model::choice_rf_2_5_0_32_F_110| false)
(= |memory_model::choice_rf_2_5_1_17_F_111| true)
(= |memory_model::choice_rf_2_5_3_12_F_112| false)
(= |memory_model::choice_rf_3_2_0_32_F_113| false)
(= |memory_model::choice_rf_3_2_1_17_F_114| true)
(= |memory_model::choice_rf_3_23_0_32_F_115| false)
(= |memory_model::choice_rf_3_23_1_17_F_116| false)
(= |memory_model::choice_rf_3_23_3_12_F_117| true)
(= |memory_model::choice_rf_0_59_0_33_F_118| false)
(= |memory_model::choice_rf_0_59_1_15_F_119| false)
(= |memory_model::choice_rf_0_59_1_31_F_120| true)
(= |memory_model::choice_rf_0_59_2_12_F_121| false)
(= |memory_model::choice_rf_0_59_3_10_F_122| false)
(= |memory_model::choice_rf_0_59_3_30_F_123| false)
(= |memory_model::choice_rf_1_8_0_33_F_124| true)
(= |memory_model::choice_rf_1_8_0_63_F_125| false)
(= |memory_model::choice_rf_1_8_2_12_F_126| false)
(= |memory_model::choice_rf_1_8_3_10_F_127| false)
(= |memory_model::choice_rf_1_8_3_30_F_128| false)
(= |memory_model::choice_rf_1_27_0_33_F_129| false)
(= |memory_model::choice_rf_1_27_0_63_F_130| false)
(= |memory_model::choice_rf_1_27_1_15_F_131| false)
(= |memory_model::choice_rf_1_27_2_12_F_132| false)
(= |memory_model::choice_rf_1_27_3_10_F_133| false)
(= |memory_model::choice_rf_1_27_3_30_F_134| true)
(= |memory_model::choice_rf_2_8_0_33_F_135| false)
(= |memory_model::choice_rf_2_8_0_63_F_136| false)
(= |memory_model::choice_rf_2_8_1_15_F_137| true)
(= |memory_model::choice_rf_2_8_1_31_F_138| false)
(= |memory_model::choice_rf_2_8_3_10_F_139| false)
(= |memory_model::choice_rf_2_8_3_30_F_140| false)
(= |memory_model::choice_rf_3_6_0_33_F_141| false)
(= |memory_model::choice_rf_3_6_0_63_F_142| false)
(= |memory_model::choice_rf_3_6_1_15_F_143| false)
(= |memory_model::choice_rf_3_6_1_31_F_144| false)
(= |memory_model::choice_rf_3_6_2_12_F_145| true)
(= |memory_model::choice_rf_3_26_0_33_F_146| false)
(= |memory_model::choice_rf_3_26_0_63_F_147| false)
(= |memory_model::choice_rf_3_26_1_15_F_148| false)
(= |memory_model::choice_rf_3_26_1_31_F_149| false)
(= |memory_model::choice_rf_3_26_2_12_F_150| false)
(= |memory_model::choice_rf_3_26_3_10_F_151| true)
(= |memory_model::choice_rf_0_54_0_34_F_152| false)
(= |memory_model::choice_rf_0_54_1_18_F_153| false)
(= |memory_model::choice_rf_0_54_3_11_F_154| true)
(= |memory_model::choice_rf_1_22_0_34_F_155| false)
(= |memory_model::choice_rf_1_22_1_18_F_156| false)
(= |memory_model::choice_rf_1_22_3_11_F_157| true)
(= |memory_model::choice_rf_2_3_0_34_F_158| false)
(= |memory_model::choice_rf_2_3_1_18_F_159| true)
(= |memory_model::choice_rf_2_3_3_11_F_160| false)
(= |memory_model::choice_rf_3_1_0_34_F_161| false)
(= |memory_model::choice_rf_3_1_1_18_F_162| true)
(= |memory_model::choice_rf_3_21_0_34_F_163| false)
(= |memory_model::choice_rf_3_21_1_18_F_164| false)
(= |memory_model::choice_rf_3_21_3_11_F_165| true)
(= |memory_model::choice_rf_0_55_0_35_F_166| false)
(= |memory_model::choice_rf_0_55_1_16_F_167| false)
(= |memory_model::choice_rf_0_55_1_30_F_168| true)
(= |memory_model::choice_rf_0_55_2_10_F_169| false)
(= |memory_model::choice_rf_0_55_3_8_F_170| false)
(= |memory_model::choice_rf_0_55_3_28_F_171| false)
(= |memory_model::choice_rf_1_23_0_35_F_172| false)
(= |memory_model::choice_rf_1_23_0_62_F_173| false)
(= |memory_model::choice_rf_1_23_1_16_F_174| false)
(= |memory_model::choice_rf_1_23_2_10_F_175| false)
(= |memory_model::choice_rf_1_23_3_8_F_176| false)
(= |memory_model::choice_rf_1_23_3_28_F_177| true)
(= |memory_model::choice_rf_2_4_0_35_F_178| false)
(= |memory_model::choice_rf_2_4_0_62_F_179| false)
(= |memory_model::choice_rf_2_4_1_16_F_180| true)
(= |memory_model::choice_rf_2_4_1_30_F_181| false)
(= |memory_model::choice_rf_2_4_3_8_F_182| false)
(= |memory_model::choice_rf_2_4_3_28_F_183| false)
(= |memory_model::choice_rf_3_3_0_35_F_184| false)
(= |memory_model::choice_rf_3_3_0_62_F_185| false)
(= |memory_model::choice_rf_3_3_1_16_F_186| false)
(= |memory_model::choice_rf_3_3_1_30_F_187| false)
(= |memory_model::choice_rf_3_3_2_10_F_188| true)
(= |memory_model::choice_rf_3_22_0_35_F_189| false)
(= |memory_model::choice_rf_3_22_0_62_F_190| false)
(= |memory_model::choice_rf_3_22_1_16_F_191| false)
(= |memory_model::choice_rf_3_22_1_30_F_192| false)
(= |memory_model::choice_rf_3_22_2_10_F_193| false)
(= |memory_model::choice_rf_3_22_3_8_F_194| true)
(= |memory_model::choice_ws-ext_0_10_1_36_T_195| true)
(= |memory_model::choice_ws-ext_0_10_2_17_T_196| true)
(= |memory_model::choice_ws-ext_0_10_3_35_T_197| true)
(= |memory_model::choice_ws-ext_1_36_2_17_T_198| true)
(= |memory_model::choice_ws-ext_1_36_3_35_T_199| false)
(= |memory_model::choice_ws-ext_2_17_3_35_T_200| false)
(= |memory_model::choice_ws-ext_0_17_1_20_F_201| true)
(= |memory_model::choice_ws-ext_0_17_2_0_F_202| true)
(= |memory_model::choice_ws-ext_1_20_2_0_F_203| true)
(= |memory_model::choice_ws-ext_0_11_1_34_F_204| true)
(= |memory_model::choice_ws-ext_0_11_2_15_F_205| true)
(= |memory_model::choice_ws-ext_0_11_3_33_F_206| true)
(= |memory_model::choice_ws-ext_1_34_2_15_F_207| false)
(= |memory_model::choice_ws-ext_1_34_3_33_F_208| true)
(= |memory_model::choice_ws-ext_2_15_3_33_F_209| true)
(= |memory_model::choice_ws-ext_0_12_3_13_F_210| true)
(= |memory_model::choice_ws-ext_0_18_2_1_F_211| true)
(= |memory_model::choice_ws-ext_0_18_3_0_F_212| true)
(= |memory_model::choice_ws-ext_2_1_3_0_F_213| true)
(= |memory_model::choice_ws-ext_0_19_1_32_F_214| true)
(= |memory_model::choice_ws-ext_0_19_2_13_F_215| true)
(= |memory_model::choice_ws-ext_0_19_3_14_F_216| true)
(= |memory_model::choice_ws-ext_0_19_3_31_F_217| true)
(= |memory_model::choice_ws-ext_0_64_1_32_F_218| false)
(= |memory_model::choice_ws-ext_0_64_2_13_F_219| false)
(= |memory_model::choice_ws-ext_0_64_3_14_F_220| false)
(= |memory_model::choice_ws-ext_0_64_3_31_F_221| false)
(= |memory_model::choice_ws-ext_1_32_2_13_F_222| false)
(= |memory_model::choice_ws-ext_1_32_3_14_F_223| false)
(= |memory_model::choice_ws-ext_1_32_3_31_F_224| false)
(= |memory_model::choice_ws-ext_2_13_3_14_F_225| true)
(= |memory_model::choice_ws-ext_2_13_3_31_F_226| true)
(= |memory_model::choice_ws-ext_0_20_3_17_F_227| true)
(= |memory_model::choice_ws-ext_0_21_3_15_F_228| true)
(= |memory_model::choice_ws-ext_0_23_1_10_F_229| true)
(= |memory_model::choice_ws-ext_0_23_1_29_F_230| true)
(= |memory_model::choice_ws-ext_0_24_2_9_F_231| true)
(= |memory_model::choice_ws-ext_0_25_3_16_F_232| true)
(= |memory_model::choice_ws-ext_0_25_3_27_F_233| true)
(= |memory_model::choice_ws-ext_0_26_1_12_F_234| true)
(= |memory_model::choice_ws-ext_0_60_1_12_F_235| false)
(= |memory_model::choice_ws-ext_0_27_1_11_F_236| true)
(= |memory_model::choice_ws-ext_0_27_1_28_F_237| true)
(= |memory_model::choice_ws-ext_0_28_1_14_F_238| true)
(= |memory_model::choice_ws-ext_0_28_2_11_F_239| true)
(= |memory_model::choice_ws-ext_1_14_2_11_F_240| true)
(= |memory_model::choice_ws-ext_0_29_1_13_F_241| true)
(= |memory_model::choice_ws-ext_0_29_3_9_F_242| true)
(= |memory_model::choice_ws-ext_0_29_3_29_F_243| true)
(= |memory_model::choice_ws-ext_1_13_3_9_F_244| true)
(= |memory_model::choice_ws-ext_1_13_3_29_F_245| true)
(= |memory_model::choice_ws-ext_0_32_1_17_F_246| true)
(= |memory_model::choice_ws-ext_0_32_3_12_F_247| true)
(= |memory_model::choice_ws-ext_1_17_3_12_F_248| true)
(= |memory_model::choice_ws-ext_0_33_1_15_F_249| true)
(= |memory_model::choice_ws-ext_0_33_1_31_F_250| true)
(= |memory_model::choice_ws-ext_0_33_2_12_F_251| true)
(= |memory_model::choice_ws-ext_0_33_3_10_F_252| true)
(= |memory_model::choice_ws-ext_0_33_3_30_F_253| true)
(= |memory_model::choice_ws-ext_0_63_1_15_F_254| false)
(= |memory_model::choice_ws-ext_0_63_1_31_F_255| false)
(= |memory_model::choice_ws-ext_0_63_2_12_F_256| false)
(= |memory_model::choice_ws-ext_0_63_3_10_F_257| false)
(= |memory_model::choice_ws-ext_0_63_3_30_F_258| false)
(= |memory_model::choice_ws-ext_1_15_2_12_F_259| true)
(= |memory_model::choice_ws-ext_1_15_3_10_F_260| true)
(= |memory_model::choice_ws-ext_1_15_3_30_F_261| true)
(= |memory_model::choice_ws-ext_1_31_2_12_F_262| false)
(= |memory_model::choice_ws-ext_1_31_3_10_F_263| false)
(= |memory_model::choice_ws-ext_1_31_3_30_F_264| false)
(= |memory_model::choice_ws-ext_2_12_3_10_F_265| true)
(= |memory_model::choice_ws-ext_2_12_3_30_F_266| true)
(= |memory_model::choice_ws-ext_0_34_1_18_F_267| true)
(= |memory_model::choice_ws-ext_0_34_3_11_F_268| true)
(= |memory_model::choice_ws-ext_1_18_3_11_F_269| true)
(= |memory_model::choice_ws-ext_0_35_1_16_F_270| true)
(= |memory_model::choice_ws-ext_0_35_1_30_F_271| true)
(= |memory_model::choice_ws-ext_0_35_2_10_F_272| true)
(= |memory_model::choice_ws-ext_0_35_3_8_F_273| true)
(= |memory_model::choice_ws-ext_0_35_3_28_F_274| true)
(= |memory_model::choice_ws-ext_0_62_1_16_F_275| false)
(= |memory_model::choice_ws-ext_0_62_1_30_F_276| false)
(= |memory_model::choice_ws-ext_0_62_2_10_F_277| false)
(= |memory_model::choice_ws-ext_0_62_3_8_F_278| false)
(= |memory_model::choice_ws-ext_0_62_3_28_F_279| false)
(= |memory_model::choice_ws-ext_1_16_2_10_F_280| true)
(= |memory_model::choice_ws-ext_1_16_3_8_F_281| true)
(= |memory_model::choice_ws-ext_1_16_3_28_F_282| true)
(= |memory_model::choice_ws-ext_1_30_2_10_F_283| false)
(= |memory_model::choice_ws-ext_1_30_3_8_F_284| false)
(= |memory_model::choice_ws-ext_1_30_3_28_F_285| false)
(= |memory_model::choice_ws-ext_2_10_3_8_F_286| true)
(= |memory_model::choice_ws-ext_2_10_3_28_F_287| true)
(= |memory_model::choice_ws-ext_0_15_3_19_F_288| true)
(= |memory_model::choice_ws-ext_0_16_3_18_F_289| true)
(= |main$tmp_guard0#3| #b00000001)
(= |__CPROVER_next_thread_id#3| #b00000000000000000000000000000001)
(= |__CPROVER_next_thread_id#6| #b00000000000000000000000000000010)
(= |__unbuffered_cnt#2| #b00000000000000000000000000000011)
(= |z$w_buff0_used#2| #b00000000)
(= |z$r_buff0_thd0#2| #b00000000)
(= |z$w_buff0#2| #b00000000000000000000000000000001)
(= |z$w_buff1_used#2| #b00000000)
(= |z$r_buff1_thd0#2| #b00000000)
(= |z$w_buff1#2| #b00000000000000000000000000000000)
(= |z#2| #b00000000000000000000000000000001)
(= |z#4| #b00000000000000000000000000000001)
(= |z$w_buff0_used#6| #b00000000)
(= |z$w_buff1_used#6| #b00000000)
(= |z$r_buff0_thd0#8| #b00000000)
(= |z$r_buff1_thd0#7| #b00000000)
(= |x#2| #b00000000000000000000000000000010)
(= |y#2| #b00000000000000000000000000000010)
(= |__unbuffered_p2_EAX#2| #b00000000000000000000000000000000)
(= |main$tmp_guard1#2| #b00000000)
(= |main$tmp_guard1#3| #b10000000)
(= |main$tmp_guard1#6| #b00000000)
(= |pthread_create::1::this_thread_id!1@0#0| #b10000000000000000000000000000000)
(= |z$w_buff0#4| #b00000000000000000000000000000000)
(= |z$w_buff0_used#11| #b00000000)
(= |z$r_buff0_thd0#11| #b00000000)
(= |z$r_buff1_thd0#9| #b00000000)
(= |z$r_buff1_thd0#10| #b10000000)
(= |z$r_buff0_thd1#2| #b00000000)
(= |z$r_buff1_thd1#2| #b00000000)
(= |z$r_buff1_thd1#3| #b10000000)
(= |z$r_buff0_thd2#2| #b00000000)
(= |z$r_buff1_thd2#2| #b00000000)
(= |z$r_buff1_thd2#3| #b10000000)
(= |z$r_buff0_thd3#2| #b00000000)
(= |z$r_buff1_thd3#2| #b00000000)
(= |z$r_buff1_thd3#3| #b10000000)
(= |z$r_buff0_thd1#4| #b00000001)
(= |x#4| #b00000000000000000000000000000001)
(= |x#5| #b10000000000000000000000000000000)
(= |z$w_buff0_used#14| #b00000001)
(= |z$r_buff0_thd1#6| #b00000001)
(= |z$w_buff0#7| #b00000000000000000000000000000001)
(= |z$w_buff1_used#10| #b00000000)
(= |z$r_buff1_thd1#5| #b00000000)
(= |z$w_buff1#5| #b00000000000000000000000000000000)
(= |z#6| #b00000000000000000000000000000000)
(= |z#8| #b00000000000000000000000000000001)
(= |z$w_buff0_used#18| #b00000000)
(= |z$w_buff1_used#14| #b00000000)
(= |z$r_buff0_thd1#12| #b00000001)
(= |z$r_buff1_thd1#10| #b00000000)
(= |__unbuffered_cnt#4| #b00000000000000000000000000000001)
(= |__unbuffered_cnt#6| #b00000000000000000000000000000010)
(= |pthread_create::1::this_thread_id!2@0#0| #b00000000000000000000000000000000)
(= |z$w_buff0_used#23| #b00000001)
(= |z$r_buff0_thd2#4| #b00000000)
(= |z$w_buff0#9| #b00000000000000000000000000000001)
(= |z$w_buff1_used#17| #b00000000)
(= |z$r_buff1_thd2#5| #b00000000)
(= |z$w_buff1#7| #b00000000000000000000000000000000)
(= |z#10| #b00000000000000000000000000000000)
(= |__unbuffered_cnt#8| #b00000000000000000000000000000000)
(= |pthread_create::1::this_thread_id!3@0#0| #b00000000000000000000000000000000)
(= |nondet_symex::nondet3| #b10000000000000000000000000000000)
(= |z#13| #b00000000000000000000000000000000)
(= |z$w_buff0_used#26| #b00000001)
(= |z$r_buff0_thd3#4| #b00000000)
(= |z$w_buff1_used#20| #b00000000)
(= |z$r_buff1_thd3#5| #b00000000)
(= |z$w_buff0#11| #b00000000000000000000000000000001)
(= |z$w_buff1#9| #b00000000000000000000000000000000)
(= |z$w_buff0_used#29| #b00000001)
(= |z$r_buff0_thd3#7| #b00000000)
(= |z$w_buff0#14| #b00000000000000000000000000000001)
(= |z$w_buff1_used#23| #b00000000)
(= |z$r_buff1_thd3#8| #b00000000)
(= |z$w_buff1#12| #b00000000000000000000000000000000)
(= |z#17| #b00000000000000000000000000000000)
(= |__unbuffered_cnt#11| #b00000000000000000000000000000010)
(= |__CPROVER_threads_exited#1$wclk$8| #b00001010)
(= |__CPROVER_threads_exited#2$rclk$8| #b11010110)
(= |__CPROVER_threads_exited#5$wclk$8| #b11011101)
(= |__CPROVER_threads_exited#7$wclk$8| #b11010010)
(= |__CPROVER_threads_exited#4$rclk$8| #b11011100)
(= |__CPROVER_threads_exited#3$wclk$8| #b11010111)
(= |__CPROVER_threads_exited#6$rclk$8| #b11010001)
(= |x#6$wclk$8| #b01001001)
(= |x#2$rclk$8| #b11100101)
(= |x#7$wclk$8| #b01001011)
(= |x#1$wclk$8| #b00010011)
(= |x#5$rclk$8| #b01001001)
(= |__unbuffered_cnt#7$wclk$8| #b10011101)
(= |__unbuffered_cnt#2$rclk$8| #b11010001)
(= |__unbuffered_cnt#10$wclk$8| #b01010011)
(= |__unbuffered_cnt#13$wclk$8| #b11010000)
(= |__unbuffered_cnt#1$wclk$8| #b00001011)
(= |__unbuffered_cnt#4$rclk$8| #b10011101)
(= |__unbuffered_cnt#8$rclk$8| #b01010011)
(= |__unbuffered_cnt#11$rclk$8| #b11010000)
(= |__unbuffered_p2_EAX#4$wclk$8| #b01011010)
(= |__unbuffered_p2_EAX#2$rclk$8| #b11100101)
(= |main$tmp_guard1#5| #b00000000)
(= |y#4$wclk$8| #b01010000)
(= |y#2$rclk$8| #b11100101)
(= |y#5$wclk$8| #b01011001)
(= |z#9$wclk$8| #b01111100)
(= |z#2$rclk$8| #b11010100)
(= |z#12$wclk$8| #b01010001)
(= |z#16$wclk$8| #b01011010)
(= |z#19$wclk$8| #b01011100)
(= |z#1$wclk$8| #b00010101)
(= |z#6$rclk$8| #b01111100)
(= |z#5$wclk$8| #b11010100)
(= |z#10$rclk$8| #b01010001)
(= |z#13$rclk$8| #b01011010)
(= |z#17$rclk$8| #b01011100)
(= |z$r_buff0_thd0#1$wclk$8| #b00100000)
(= |z$r_buff0_thd0#11$rclk$8| #b01000011)
(= |z$r_buff0_thd0#10$wclk$8| #b11010100)
(= |z$r_buff0_thd1#1$wclk$8| #b00100010)
(= |z$r_buff0_thd1#2$rclk$8| #b01000011)
(= |z$r_buff0_thd1#6$rclk$8| #b01111100)
(= |z$r_buff0_thd2#1$wclk$8| #b00100100)
(= |z$r_buff0_thd2#2$rclk$8| #b01000011)
(= |z$r_buff0_thd2#6$wclk$8| #b01010001)
(= |z$r_buff0_thd2#4$rclk$8| #b01010001)
(= |z$r_buff0_thd3#1$wclk$8| #b00100101)
(= |z$r_buff0_thd3#2$rclk$8| #b01000011)
(= |z$r_buff0_thd3#6$wclk$8| #b01011010)
(= |z$r_buff0_thd3#9$wclk$8| #b01011100)
(= |z$r_buff0_thd3#4$rclk$8| #b01011010)
(= |z$r_buff0_thd3#7$rclk$8| #b01011100)
(= |z$r_buff1_thd0#11$wclk$8| #b01000011)
(= |z$r_buff1_thd0#2$rclk$8| #b11010100)
(= |z$r_buff1_thd0#1$wclk$8| #b00100110)
(= |z$r_buff1_thd0#10$rclk$8| #b01000011)
(= |z$r_buff1_thd0#8$wclk$8| #b11010100)
(= |z$r_buff1_thd1#1$wclk$8| #b00100111)
(= |z$r_buff1_thd1#3$rclk$8| #b01000011)
(= |z$r_buff1_thd1#5$rclk$8| #b01111100)
(= |z$r_buff1_thd2#1$wclk$8| #b00110010)
(= |z$r_buff1_thd2#3$rclk$8| #b01000011)
(= |z$r_buff1_thd2#7$wclk$8| #b01010001)
(= |z$r_buff1_thd2#5$rclk$8| #b01010001)
(= |z$r_buff1_thd2#4$wclk$8| #b01000011)
(= |z$r_buff1_thd3#1$wclk$8| #b00110011)
(= |z$r_buff1_thd3#3$rclk$8| #b01000011)
(= |z$r_buff1_thd3#7$wclk$8| #b01011010)
(= |z$r_buff1_thd3#10$wclk$8| #b01011100)
(= |z$r_buff1_thd3#5$rclk$8| #b01011010)
(= |z$r_buff1_thd3#4$wclk$8| #b01000011)
(= |z$r_buff1_thd3#8$rclk$8| #b01011100)
(= |z$w_buff0#6$wclk$8| #b01000011)
(= |z$w_buff0#2$rclk$8| #b11010100)
(= |z$w_buff0#13$wclk$8| #b01011010)
(= |z$w_buff0#1$wclk$8| #b00110110)
(= |z$w_buff0#4$rclk$8| #b01000011)
(= |z$w_buff0#7$rclk$8| #b01111100)
(= |z$w_buff0#9$rclk$8| #b01010001)
(= |z$w_buff0#11$rclk$8| #b01011010)
(= |z$w_buff0#14$rclk$8| #b01011100)
(= |z$w_buff0_used#13$wclk$8| #b01000011)
(= |z$w_buff0_used#2$rclk$8| #b11010100)
(= |z$w_buff0_used#22$wclk$8| #b01111100)
(= |z$w_buff0_used#25$wclk$8| #b01010001)
(= |z$w_buff0_used#28$wclk$8| #b01011010)
(= |z$w_buff0_used#31$wclk$8| #b01011100)
(= |z$w_buff0_used#1$wclk$8| #b00110111)
(= |z$w_buff0_used#11$rclk$8| #b01000011)
(= |z$w_buff0_used#10$wclk$8| #b11010100)
(= |z$w_buff0_used#14$rclk$8| #b01111100)
(= |z$w_buff0_used#23$rclk$8| #b01010001)
(= |z$w_buff0_used#26$rclk$8| #b01011010)
(= |z$w_buff0_used#29$rclk$8| #b01011100)
(= |z$w_buff1#4$wclk$8| #b01000011)
(= |z$w_buff1#2$rclk$8| #b11010100)
(= |z$w_buff1#11$wclk$8| #b01011010)
(= |z$w_buff1#1$wclk$8| #b00111001)
(= |z$w_buff1#5$rclk$8| #b01111100)
(= |z$w_buff1#7$rclk$8| #b01010001)
(= |z$w_buff1#9$rclk$8| #b01011010)
(= |z$w_buff1#12$rclk$8| #b01011100)
(= |z$w_buff1_used#9$wclk$8| #b01000011)
(= |z$w_buff1_used#2$rclk$8| #b11010100)
(= |z$w_buff1_used#16$wclk$8| #b01111100)
(= |z$w_buff1_used#19$wclk$8| #b01010001)
(= |z$w_buff1_used#22$wclk$8| #b01011010)
(= |z$w_buff1_used#25$wclk$8| #b01011100)
(= |z$w_buff1_used#1$wclk$8| #b00111011)
(= |z$w_buff1_used#10$rclk$8| #b01111100)
(= |z$w_buff1_used#8$wclk$8| #b11010100)
(= |z$w_buff1_used#17$rclk$8| #b01010001)
(= |z$w_buff1_used#20$rclk$8| #b01011010)
(= |z$w_buff1_used#23$rclk$8| #b01011100)
(= |__unbuffered_p2_EAX#1$wclk$8| #b00001100)
(= |y#1$wclk$8| #b00010100)
(= |z$flush_delayed#1$wclk$8| #b00010110)
(= |z$flush_delayed#3$wclk$8| #b01011010)
(= |z$mem_tmp#1$wclk$8| #b00010111)
(= |z$mem_tmp#2$wclk$8| #b01011010)
(= |z$r_buff0_thd1#5$wclk$8| #b01000011)
(= |z$r_buff0_thd1#14$wclk$8| #b01111100)
(= |z$r_buff1_thd1#4$wclk$8| #b01000011)
(= |z$r_buff1_thd1#11$wclk$8| #b01111100)
(= |weak$$choice0#1$wclk$8| #b00010001)
(= |weak$$choice0#2$wclk$8| #b01011010)
(= |weak$$choice2#1$wclk$8| #b00010010)
(= |weak$$choice2#2$wclk$8| #b01011010)
(= t1$39$spwnclk$8 #b01000010)
(= t1$44$spwnclk$8 #b01001010)
(= t1$49$spwnclk$8 #b01011000)
(= |main::1::t1504!0@1$wclk$8| #b00000000)
(= |main::1::t1505!0@1$wclk$8| #b00000001)
(= |__CPROVER_dead_object#1$wclk$8| #b00000010)
(= |__CPROVER_deallocated#1$wclk$8| #b00000011)
(= |__CPROVER_malloc_is_new_array#1$wclk$8| #b00000100)
(= |__CPROVER_malloc_object#1$wclk$8| #b00000101)
(= |__CPROVER_malloc_size#1$wclk$8| #b00000110)
(= |__CPROVER_memory_leak#1$wclk$8| #b00000111)
(= |__CPROVER_next_thread_id#1$wclk$8| #b00001000)
(= |__CPROVER_pipe_count#1$wclk$8| #b00001001)
(= |main$tmp_guard0#1$wclk$8| #b00001110)
(= |main$tmp_guard1#1$wclk$8| #b00001111)
(= |z$read_delayed#1$wclk$8| #b00110100)
(= |z$read_delayed_var#1$wclk$8| #b00110101)
(= |main::1::t1503!0@1#1$wclk$8| #b00111110)
(= |__CPROVER_next_thread_id#2$wclk$8| #b01000000)
(= |main::1::t1503!0@1#2$wclk$8| #b01000001)
(= |main::1::t1504!0@1#1$wclk$8| #b01000011)
(= |__CPROVER_next_thread_id#3$rclk$8| #b01000100)
(= |__CPROVER_next_thread_id#5$wclk$8| #b01000100)
(= |main::1::t1504!0@1#2$wclk$8| #b01000101)
(= |main::1::t1505!0@1#1$wclk$8| #b01001011)
(= |__CPROVER_next_thread_id#6$rclk$8| #b01001110)
(= |__CPROVER_next_thread_id#8$wclk$8| #b01001110)
(= |main::1::t1505!0@1#2$wclk$8| #b01001111)
(= |main$tmp_guard0#2$wclk$8| #b11010001)
(= |main$tmp_guard0#3$rclk$8| #b11010011)
(= |z$r_buff0_thd0#2$rclk$8| #b11010100)
(= |main$tmp_guard1#3$rclk$8| #b11100101)
(= |main$tmp_guard1#4$wclk$8| #b11100101)
(= |main$tmp_guard1#5$rclk$8| #b11101100)
(= |main$tmp_guard1#6$rclk$8| #b11110001)
(= array_of.0 @fun_11)
(= |__CPROVER_threads_exited#2| @fun_7)
(= |__CPROVER_threads_exited#4| @fun_9)
(= |__CPROVER_threads_exited#6| @fun_11)
(function @fun_11
 (type (Array (_ BitVec 32) (_ BitVec 1)))
 (= (@fun_11 #b10000000000000000000000000000000) #b0)
 (= (@fun_11 #b00000000000000000000000000000000) #b0)
 (default #b1))
(function @fun_7
 (type (Array (_ BitVec 32) (_ BitVec 1)))
 (= (@fun_7 #b10000000000000000000000000000000) #b0)
 (default #b1))
(function @fun_9
 (type (Array (_ BitVec 32) (_ BitVec 1)))
 (default #b1))

real	0m0.019s
user	0m0.019s
sys	0m0.000s
State: AC Run_time: 0.0213165283203125